c An instance of conditional planning (by rintanen@informatik.uni-freiburg.de)
p cnf 132 623
e 54 55 56 57 58 59 60 61 62 63 64 65 66 67 68 69 70 71 72 73 74 75 76 77 78 79 80 81 82 83 84 85 86 87 88 89 90 91 92 93 94 95 96 97 0
a 110 109 108 111 0
e 1 2 3 4 5 6 7 8 9 10 11 12 13 14 15 16 17 18 19 20 21 22 23 24 25 26 27 28 29 30 31 32 33 34 35 36 37 38 39 40 41 42 43 44 45 46 47 48 49 50 51 52 53 98 99 100 101 102 103 104 105 106 107 112 113 114 115 116 117 118 119 120 121 122 123 124 125 126 127 128 129 130 131 132 0
-110 -112 108 109 111 0
-110 -113 108 109 111 0
-110 -114 108 109 111 0
-110 -115 108 109 111 0
-110 -116 108 109 111 0
-110 -117 108 109 111 0
-110 -118 108 109 111 0
-110 108 109 111 119 0
-110 -120 108 109 111 0
-110 -121 108 109 111 0
-108 -109 -111 -112 110 0
-108 -109 -111 -113 110 0
-108 -109 -111 -114 110 0
-108 -109 -111 -115 110 0
-108 -109 -111 -116 110 0
-108 -109 -111 -117 110 0
-108 -109 -111 110 118 0
-108 -109 -111 -119 110 0
-108 -109 -111 -120 110 0
-108 -109 -111 -121 110 0
-108 -109 -112 110 111 0
-108 -109 -113 110 111 0
-108 -109 -114 110 111 0
-108 -109 -115 110 111 0
-108 -109 -116 110 111 0
-108 -109 110 111 117 0
-108 -109 -118 110 111 0
-108 -109 -119 110 111 0
-108 -109 -120 110 111 0
-108 -109 -121 110 111 0
-109 -111 -112 108 110 0
-109 -111 -113 108 110 0
-109 -111 -114 108 110 0
-109 -111 -115 108 110 0
-109 -111 108 110 116 0
-109 -111 -117 108 110 0
-109 -111 -118 108 110 0
-109 -111 -119 108 110 0
-109 -111 -120 108 110 0
-109 -111 -121 108 110 0
-109 -112 108 110 111 0
-109 -113 108 110 111 0
-109 -114 108 110 111 0
-109 108 110 111 115 0
-109 -116 108 110 111 0
-109 -117 108 110 111 0
-109 -118 108 110 111 0
-109 -119 108 110 111 0
-109 -120 108 110 111 0
-109 -121 108 110 111 0
-108 -111 -112 109 110 0
-108 -111 -113 109 110 0
-108 -111 109 110 114 0
-108 -111 -115 109 110 0
-108 -111 -116 109 110 0
-108 -111 -117 109 110 0
-108 -111 -118 109 110 0
-108 -111 -119 109 110 0
-108 -111 -120 109 110 0
-108 -111 -121 109 110 0
-108 -112 109 110 111 0
-108 109 110 111 113 0
-108 -114 109 110 111 0
-108 -115 109 110 111 0
-108 -116 109 110 111 0
-108 -117 109 110 111 0
-108 -118 109 110 111 0
-108 -119 109 110 111 0
-108 -120 109 110 111 0
-108 -121 109 110 111 0
-111 108 109 110 112 0
-111 -113 108 109 110 0
-111 -114 108 109 110 0
-111 -115 108 109 110 0
-111 -116 108 109 110 0
-111 -117 108 109 110 0
-111 -118 108 109 110 0
-111 -119 108 109 110 0
-111 -120 108 109 110 0
-111 -121 108 109 110 0
-112 108 109 110 111 0
-113 108 109 110 111 0
-114 108 109 110 111 0
-115 108 109 110 111 0
-116 108 109 110 111 0
-117 108 109 110 111 0
-118 108 109 110 111 0
-119 108 109 110 111 0
-120 108 109 110 111 0
108 109 110 111 121 0
-110 -111 -112 108 109 0
-110 -111 -113 108 109 0
-110 -111 -114 108 109 0
-110 -111 -115 108 109 0
-110 -111 -116 108 109 0
-110 -111 -117 108 109 0
-110 -111 -118 108 109 0
-110 -111 -119 108 109 0
-110 -111 108 109 120 0
-110 -111 -121 108 109 0
-122 0
-123 0
-124 0
-125 0
-126 0
-127 0
-128 0
-129 0
-130 0
-131 0
-132 0
-54 -132 0
-54 -122 0
-4 -55 0
-1 -55 0
-5 -56 0
-2 -56 0
-58 -123 0
-58 -132 0
-9 -59 0
-4 -59 0
-10 -60 0
-5 -60 0
-62 -124 0
-62 -132 0
-14 -63 0
-4 -63 0
-15 -64 0
-5 -64 0
-66 -125 0
-66 -132 0
-19 -67 0
-4 -67 0
-20 -68 0
-5 -68 0
-70 -126 0
-70 -132 0
-24 -71 0
-4 -71 0
-25 -72 0
-5 -72 0
-74 -127 0
-74 -132 0
-29 -75 0
-4 -75 0
-30 -76 0
-5 -76 0
-78 -128 0
-78 -132 0
-34 -79 0
-4 -79 0
-35 -80 0
-5 -80 0
-82 -129 0
-82 -132 0
-39 -83 0
-4 -83 0
-40 -84 0
-5 -84 0
-86 -130 0
-86 -132 0
-44 -87 0
-4 -87 0
-45 -88 0
-5 -88 0
-90 -131 0
-90 -132 0
-49 -92 0
-4 -92 0
-50 -94 0
-5 -94 0
-91 132 0
-93 4 0
-95 5 0
-54 4 0
-7 -54 0
-54 1 0
-55 5 0
-8 -55 0
-55 2 0
-56 6 0
-56 -98 0
-56 3 0
-58 9 0
-12 -58 0
-58 4 0
-59 10 0
-13 -59 0
-59 5 0
-60 11 0
-60 -99 0
-60 6 0
-62 14 0
-17 -62 0
-62 4 0
-63 15 0
-18 -63 0
-63 5 0
-64 16 0
-64 -100 0
-64 6 0
-66 19 0
-22 -66 0
-66 4 0
-67 20 0
-23 -67 0
-67 5 0
-68 21 0
-68 -101 0
-68 6 0
-70 24 0
-27 -70 0
-70 4 0
-71 25 0
-28 -71 0
-71 5 0
-72 26 0
-72 -102 0
-72 6 0
-74 29 0
-32 -74 0
-74 4 0
-75 30 0
-33 -75 0
-75 5 0
-76 31 0
-76 -103 0
-76 6 0
-78 34 0
-37 -78 0
-78 4 0
-79 35 0
-38 -79 0
-79 5 0
-80 36 0
-80 -104 0
-80 6 0
-82 39 0
-42 -82 0
-82 4 0
-83 40 0
-43 -83 0
-83 5 0
-84 41 0
-84 -105 0
-84 6 0
-86 44 0
-47 -86 0
-86 4 0
-87 45 0
-48 -87 0
-87 5 0
-88 46 0
-88 -106 0
-88 6 0
-90 49 0
-52 -90 0
-90 4 0
-92 50 0
-53 -92 0
-92 5 0
-94 51 0
-94 -107 0
-94 6 0
-4 -91 0
-5 -93 0
-6 -95 0
-1 54 122 0
-2 1 55 0
-3 2 56 0
-122 1 0
-1 2 0
-2 3 0
-4 54 58 62 66 70 74 78 82 86 90 132 0
-5 4 55 59 63 67 71 75 79 83 87 92 0
-6 5 56 60 64 68 72 76 80 84 88 94 0
-132 4 91 0
-4 5 93 0
-5 6 95 0
-7 121 0
-8 7 0
-98 8 0
-121 7 54 0
-7 8 55 0
-8 56 98 0
-9 58 123 0
-10 9 59 0
-11 10 60 0
-123 9 0
-9 10 0
-10 11 0
-12 112 0
-13 12 0
-99 13 0
-112 12 58 0
-12 13 59 0
-13 60 99 0
-14 62 124 0
-15 14 63 0
-16 15 64 0
-124 14 0
-14 15 0
-15 16 0
-17 113 0
-18 17 0
-100 18 0
-113 17 62 0
-17 18 63 0
-18 64 100 0
-19 66 125 0
-20 19 67 0
-21 20 68 0
-125 19 0
-19 20 0
-20 21 0
-22 114 0
-23 22 0
-101 23 0
-114 22 66 0
-22 23 67 0
-23 68 101 0
-24 70 126 0
-25 24 71 0
-26 25 72 0
-126 24 0
-24 25 0
-25 26 0
-27 115 0
-28 27 0
-102 28 0
-115 27 70 0
-27 28 71 0
-28 72 102 0
-29 74 127 0
-30 29 75 0
-31 30 76 0
-127 29 0
-29 30 0
-30 31 0
-32 116 0
-33 32 0
-103 33 0
-116 32 74 0
-32 33 75 0
-33 76 103 0
-34 78 128 0
-35 34 79 0
-36 35 80 0
-128 34 0
-34 35 0
-35 36 0
-37 117 0
-38 37 0
-104 38 0
-117 37 78 0
-37 38 79 0
-38 80 104 0
-39 82 129 0
-40 39 83 0
-41 40 84 0
-129 39 0
-39 40 0
-40 41 0
-42 118 0
-43 42 0
-105 43 0
-118 42 82 0
-42 43 83 0
-43 84 105 0
-44 86 130 0
-45 44 87 0
-46 45 88 0
-130 44 0
-44 45 0
-45 46 0
-47 119 0
-48 47 0
-106 48 0
-119 47 86 0
-47 48 87 0
-48 88 106 0
-49 90 131 0
-50 49 92 0
-51 50 94 0
-131 49 0
-49 50 0
-50 51 0
-52 120 0
-53 52 0
-107 53 0
-120 52 90 0
-52 53 92 0
-53 94 107 0
-54 -58 0
-55 -59 0
-56 -60 0
-57 -61 0
-54 -62 0
-55 -63 0
-56 -64 0
-57 -65 0
-54 -66 0
-55 -67 0
-56 -68 0
-57 -69 0
-54 -70 0
-55 -71 0
-56 -72 0
-57 -73 0
-54 -74 0
-55 -75 0
-56 -76 0
-57 -77 0
-54 -78 0
-55 -79 0
-56 -80 0
-57 -81 0
-54 -82 0
-55 -83 0
-56 -84 0
-57 -85 0
-54 -86 0
-55 -87 0
-56 -88 0
-57 -89 0
-54 -90 0
-55 -92 0
-56 -94 0
-57 -96 0
-54 -91 0
-55 -93 0
-56 -95 0
-57 -97 0
-58 -62 0
-59 -63 0
-60 -64 0
-61 -65 0
-58 -66 0
-59 -67 0
-60 -68 0
-61 -69 0
-58 -70 0
-59 -71 0
-60 -72 0
-61 -73 0
-58 -74 0
-59 -75 0
-60 -76 0
-61 -77 0
-58 -78 0
-59 -79 0
-60 -80 0
-61 -81 0
-58 -82 0
-59 -83 0
-60 -84 0
-61 -85 0
-58 -86 0
-59 -87 0
-60 -88 0
-61 -89 0
-58 -90 0
-59 -92 0
-60 -94 0
-61 -96 0
-58 -91 0
-59 -93 0
-60 -95 0
-61 -97 0
-62 -66 0
-63 -67 0
-64 -68 0
-65 -69 0
-62 -70 0
-63 -71 0
-64 -72 0
-65 -73 0
-62 -74 0
-63 -75 0
-64 -76 0
-65 -77 0
-62 -78 0
-63 -79 0
-64 -80 0
-65 -81 0
-62 -82 0
-63 -83 0
-64 -84 0
-65 -85 0
-62 -86 0
-63 -87 0
-64 -88 0
-65 -89 0
-62 -90 0
-63 -92 0
-64 -94 0
-65 -96 0
-62 -91 0
-63 -93 0
-64 -95 0
-65 -97 0
-66 -70 0
-67 -71 0
-68 -72 0
-69 -73 0
-66 -74 0
-67 -75 0
-68 -76 0
-69 -77 0
-66 -78 0
-67 -79 0
-68 -80 0
-69 -81 0
-66 -82 0
-67 -83 0
-68 -84 0
-69 -85 0
-66 -86 0
-67 -87 0
-68 -88 0
-69 -89 0
-66 -90 0
-67 -92 0
-68 -94 0
-69 -96 0
-66 -91 0
-67 -93 0
-68 -95 0
-69 -97 0
-70 -74 0
-71 -75 0
-72 -76 0
-73 -77 0
-70 -78 0
-71 -79 0
-72 -80 0
-73 -81 0
-70 -82 0
-71 -83 0
-72 -84 0
-73 -85 0
-70 -86 0
-71 -87 0
-72 -88 0
-73 -89 0
-70 -90 0
-71 -92 0
-72 -94 0
-73 -96 0
-70 -91 0
-71 -93 0
-72 -95 0
-73 -97 0
-74 -78 0
-75 -79 0
-76 -80 0
-77 -81 0
-74 -82 0
-75 -83 0
-76 -84 0
-77 -85 0
-74 -86 0
-75 -87 0
-76 -88 0
-77 -89 0
-74 -90 0
-75 -92 0
-76 -94 0
-77 -96 0
-74 -91 0
-75 -93 0
-76 -95 0
-77 -97 0
-78 -82 0
-79 -83 0
-80 -84 0
-81 -85 0
-78 -86 0
-79 -87 0
-80 -88 0
-81 -89 0
-78 -90 0
-79 -92 0
-80 -94 0
-81 -96 0
-78 -91 0
-79 -93 0
-80 -95 0
-81 -97 0
-82 -86 0
-83 -87 0
-84 -88 0
-85 -89 0
-82 -90 0
-83 -92 0
-84 -94 0
-85 -96 0
-82 -91 0
-83 -93 0
-84 -95 0
-85 -97 0
-86 -90 0
-87 -92 0
-88 -94 0
-89 -96 0
-86 -91 0
-87 -93 0
-88 -95 0
-89 -97 0
-90 -91 0
-92 -93 0
-94 -95 0
-96 -97 0
-98 0
-99 0
-100 0
-101 0
-102 0
-103 0
-104 0
-105 0
-106 0
-107 0
